RAW/XQ/fspd/X-n167-k10.vrp_seed-1.out
17275	21.578	22.54
