RAW/XQ/fspd/X-n167-k10.vrp_seed-1.sol
Route #1: 103 152 121 79 3 130 143 71 113 154 139 23 18 54 42 87 63
Route #2: 99 86 5
Route #3: 101 27 108 102 100 50 19 133 141 70 24 31 40 135 150 98 45 81 164 34 65 110 36 105 80 144 124
Route #4: 137 73 22 83 69 155 56 58 61 127 126 47 118 93 25 7 6 89 67
Route #5: 46 52 125 66 20 91 161 90 94 166 106 33 74 41 138 78 165 26 35 123 68 48
Route #6: 157 9 162 62 128 85 156 115 97 148 116 153 131 151 38 14 96 17 159 15 140 119 134
Route #7: 158 95 59 112 53 32 72 10 136 114 163 145 129 8 2 29 28 16 109 75 160 4 149 21 55 92 30 44
Route #8: 43 117 147 49 107 64 104 12 57 77 13 1 122 111 88 37 84 51 146 39 11 120 82 142 132 60 76
Cost 17275.000000